Test: battleship-10-19-sat.cnf
Options: -no-inverting-opt -sym-var-bump
WARNING: for repeatability, setting FPU to use double precision
============================[ Problem Statistics ]=============================
|                                                                             |
|  Number of symmetries:           15                                         |
|  Number of invertingSyms:         0                                         |
|  Number of variables:           190                                         |
|  Number of clauses:             955                                         |
|  Parse time:                   0.00 s                                       |
|                                                                             |
============================[ Search Statistics ]==============================
| Conflicts |          ORIGINAL         |          LEARNT          | Progress |
|           |    Vars  Clauses Literals |    Limit  Clauses Lit/Cl |          |
===============================================================================
|       100 |     190      955     3610 |      350      127     77 |  0.003 % |
===============================================================================
restarts              : 2
conflicts             : 174            (43500 /sec)
symconflicts          : 9              (2250 /sec)
decisions             : 496            (0.00 % random) (124000 /sec)
propagations          : 4000           (1000000 /sec)
sympropagations       : 38             (9500 /sec)
conflict literals     : 13143          (0.34 % deleted)
literals     : 13143          (0.34 % deleted)

HEURISTIC USAGES
random                : 0           
activity w/ lookahead : 0           
activity no lookahead : 0           
original sp           : 495         
sym count             : 0           

Memory used           : 5.00 MB
CPU time              : 0.004 s

SATISFIABLE
